Regular mesh centered at Gamma (better forces)
0
Gamma
2 2 2

