Regular mesh centered at Gamma (better forces)
0
Gamma
4 4 4 

